! wb97x-v def2-tzvp def2/J RIJCOSX DEFGRID2 scfconv7 GCP(DFT/TZ) printgap
%output
    printlevel normal
end
* xyz 0 1
C -2.5419817099980766 0.08092247264149 -0.5470057016232103
C -1.971768424073927 -1.1625705833653923 -0.2781459671251446
C -0.6935378999277733 -1.2426035544403509 0.26744579682429687
C 0.03651876568857865 -0.08446360886696754 0.555424579314413
C -0.5445688431579423 1.1563837758872149 0.27957155395854744
C -1.823491427936143 1.2407427414414685 -0.2674498156901831
C 1.4354342704509722 -0.17993805498297766 1.1010690169954864
C 2.4735821572788566 -0.4738039235549433 0.017162437955506676
O 2.5143474873114333 0.5371659874876156 -1.00274805672029
H -3.540237739618861 0.14448162635709036 -0.9686534433648967
H -2.5266981441633116 -2.0717185129912985 -0.48958723551675676
H -0.2549291819512609 -2.215194854647533 0.47640921985783335
H 0.01083418879708286 2.0643242739175256 0.49944318102624574
H -2.259617576378013 2.2139254851012615 -0.4722913826535058
H 1.7069988684855524 0.7547133127976896 1.6060048959108377
H 1.4982509405732212 -0.9867531501138963 1.8410826212494789
H 3.4632001347788797 -0.5866722623179986 0.48065995497216846
H 2.2278262874596173 -1.4080859089330624 -0.4978855852250675
H 2.745099998996773 1.3717308745758559 -0.5731700551923558
*
