! r2scan-3c def2/J RI DEFGRID2 scfconv6 printgap
%output
    printlevel normal
end
%cpcm
    smd true
    smdsolvent "water"
end
* xyz 0 1
C 2.2786279699 0.993098556 0.5734610361
C 1.1926698639 -0.080697105 0.5142372047
C 1.6904954236 -1.2997674418 -0.2741376378
C -0.0297963142 0.4482169117 -0.2125984138
O 0.0948588016 1.1643425718 -1.1882578207
C -1.420076643 0.0812575488 0.2857344507
C -1.5037917472 -1.05342904 1.3021059463
C -2.3308316088 -0.2013246623 -0.9142647612
H 3.1870950396 0.5851070096 1.0076010528
H 1.9476709921 1.8352842507 1.1770987991
H 2.4966747819 1.3565449149 -0.4282022891
H 0.9322830399 -0.3894794897 1.5259348206
H 2.5774909051 -1.7077125201 0.2027768703
H 0.9305129692 -2.075289744 -0.3195217401
H 1.9426023157 -1.0031928174 -1.2900824848
H -1.7776712717 1.0035704252 0.7643741363
H -1.0594175159 -1.9640895469 0.9103745351
H -1.0182093663 -0.7952267681 2.2386392133
H -2.5506995335 -1.2547873272 1.5162214476
H -2.2238522333 0.5849912343 -1.6574343323
H -2.0587730638 -1.1487434921 -1.3741799268
H -3.3692604942 -0.2505108591 -0.5996856642
*
