! r2scan-3c def2/J RI DEFGRID2 scfconv6 printgap
%output
    printlevel normal
end
%cpcm
    smd true
    smdsolvent "water"
end
* xyz 0 1
C -2.6091991373 -0.1771338986 -0.3836640806
C -1.6629953194 -1.1826236182 -0.458820151
C -0.3498143309 -0.9401842223 -0.0892749247
C 0.0404643433 0.3135936398 0.3576957709
C -0.9212016848 1.318405695 0.4276589034
C -2.2323554479 1.0788894094 0.0630479698
C 1.4469419728 0.6477876876 0.7860095123
C 2.5171366011 -0.3808033238 0.4312952031
O 2.6124141947 -0.4963166625 -0.9753691452
H -3.631664784 -0.3678136439 -0.673560739
H -1.9453997372 -2.1648256637 -0.8086176882
H 0.368600151 -1.7397961416 -0.1684020179
H -0.6329152419 2.3014452543 0.772302775
H -2.9615804204 1.873336942 0.1237107245
H 1.7269280244 1.5977850699 0.3245360332
H 1.4601117399 0.7871463464 1.8704070763
H 3.4748598189 -0.0380249125 0.8467169291
H 2.2764764661 -1.3521325591 0.8839985687
H 3.3338742142 -1.0974033205 -1.2011846945
*
