! pbe def2-sv(p) def2/J RI DEFGRID1 loosescf d4 GCP(DFT/SV(P)) printgap
%output
    printlevel normal
end
* xyz 0 1
C -1.1695262817 0.236111024 -0.4107054628
C -0.0044751912 0.6690015506 0.4932766313
C 1.0726687841 -0.4325276814 0.5985837331
O 1.2428105085 -1.1982623849 -0.5659173334
O 0.6091706678 1.8365011921 -0.00773233
O -1.6297067414 -1.0295703524 0.0125411025
H -0.8021898237 0.1975701514 -1.4451738296
H -1.9681013638 0.9852442036 -0.3451371501
H -0.385135204 0.8504902097 1.5093114232
H 0.8279727884 -1.080893061 1.44708241
H 2.0299735958 0.0590911377 0.7835273001
H 0.4528201695 -1.7486207193 -0.6766382896
H -0.0291549252 2.5633400038 -0.0260870471
H -2.4469352652 -1.2458509999 -0.4569262409
*
