! r2scan-3c def2/J RI DEFGRID2 scfconv6 printgap
%output
    printlevel normal
end
%cpcm
    smd true
    smdsolvent "water"
end
* xyz 0 1
C -2.227544225 -0.8444001192 0.2310368337
C -1.5359760931 0.5017526566 0.332025347
S 0.0513529823 0.5636473923 -0.5732746721
C 1.0938003499 -0.4887548396 0.5099053195
C 2.5537737225 -0.334180522 0.1312609359
H -3.2031050499 -0.7898614569 0.7083784262
H -2.3621129834 -1.1195862323 -0.8123282383
H -1.6452138885 -1.6192295894 0.7239229678
H -1.3294652217 0.7753891075 1.3668075735
H -2.1360094679 1.2837806839 -0.1314780536
H 0.9151010352 -0.1632273495 1.5348713343
H 0.7663569699 -1.5206966749 0.3857533757
H 3.1693132489 -0.9574671084 0.7752107177
H 2.7088364786 -0.6330098954 -0.9026749003
H 2.8642773955 0.7022757745 0.2389287676
*
