! r2scan-3c def2/J RI DEFGRID2 scfconv6 printgap
%output
    printlevel normal
end
%cpcm
    smd true
    smdsolvent "water"
end
* xyz 0 1
C -3.8400312297 -0.7701446798 -0.0890390062
C -2.7358301664 0.1134568974 0.4790944343
C -1.3640826632 -0.3018255209 -0.0542325064
C -0.2790425753 0.5864019332 0.5205390955
Br 1.5023944509 0.071250553 -0.1538879153
H -3.6744766962 -1.8097406513 0.1829505915
H -4.8072279586 -0.4623809717 0.2988157684
H -3.8651730404 -0.6992447887 -1.1737169049
H -2.7369002076 0.0430375342 1.5686702242
H -2.9279871219 1.1543955714 0.2114206399
H -1.1668568957 -1.3422557515 0.213505835
H -1.3580671092 -0.2302791795 -1.1441543818
H -0.2158948201 0.504047932 1.6042544477
H -0.4099089962 1.6282227923 0.2330627894
*
