! r2scan-3c def2/J RI DEFGRID2 scfconv6 printgap
%output
    printlevel normal
end
* xyz 0 1
C -2.7444817102 -0.1235186416 0.6393978467
C -1.7064063701 0.7130181908 -0.1009143237
C -0.4129334678 -0.0390173917 -0.287347535
O -0.3203393913 -1.2354174386 -0.4621582979
O 0.6304983393 0.783737683 -0.2642396286
C 1.9448643264 0.2290106226 -0.4436028727
C 2.5196241181 -0.2558296516 0.8785774119
H -2.4255270762 -0.3091121163 1.6617459168
H -3.6984651899 0.3939914773 0.657863357
H -2.8687602651 -1.0824169024 0.1425687496
H -1.4920560155 1.6464898774 0.4179980365
H -2.0742099355 0.9552741826 -1.1009550592
H 1.8810960117 -0.5949367916 -1.1606943889
H 2.5340309656 1.0479289878 -0.8571087941
H 1.9194161414 -1.0758760706 1.2665056702
H 3.5349575249 -0.6053269662 0.7230583415
H 2.5248515354 0.5535281713 1.6035746178
*
