! r2scan-3c def2/J RI DEFGRID2 scfconv6 printgap
%output
    printlevel normal
end
%cpcm
    smd true
    smdsolvent "water"
end
* xyz 0 1
C -2.5482011206 0.3187760114 -0.6183339908
C -1.8429375065 -0.4113295938 0.5196260058
C -0.4008050003 0.0500139121 0.7301815368
C 0.5016854293 -0.3053501238 -0.4609131876
C 1.8673111849 0.0364999409 -0.1880514597
N 2.954446972 0.3139511046 0.0461993646
H -2.4944018123 1.3952827879 -0.4713799728
H -2.1036063845 0.0771129392 -1.5801948501
H -3.5960080907 0.0312918019 -0.6529814849
H -2.3921975473 -0.2351002421 1.4465597186
H -1.8564257433 -1.4862646585 0.3276433941
H -0.0012564153 -0.4242682335 1.6293893785
H -0.3808819667 1.1304880373 0.8875067674
H 0.4514374678 -1.3781392031 -0.6645963491
H 0.1894048687 0.2373772265 -1.3555235343
*
