! r2scan-3c def2/J RI DEFGRID2 scfconv6 printgap
%output
    printlevel normal
end
%cpcm
    smd true
    smdsolvent "water"
end
* xyz 0 1
C 2.2543012024 -1.03414466 0.2717066852
C 1.6241607859 0.0864476371 -0.5497885164
C 0.4405466589 0.7631528127 0.1544219145
C -0.9382416007 0.2588405604 -0.2968762996
H -1.0207731868 0.3689325559 -1.3849126897
C -1.2005129441 -1.1961453274 0.0856969386
O -1.9599913874 1.1062905623 0.2090273652
H 3.0837586281 -1.4776125103 -0.2743143664
H 1.5341757549 -1.8160669413 0.4931272484
H 2.6363904927 -0.6429739329 1.2119916227
H 2.392788379 0.8355837593 -0.7486899262
H 1.2968198754 -0.3045021778 -1.5150918763
H 0.5329620717 0.6289136504 1.23467194
H 0.4598651653 1.8366693814 -0.0470128438
H -2.2326734761 -1.4501454728 -0.1453084474
H -0.5486517452 -1.8570016708 -0.4760397828
H -1.0313865567 -1.3469191026 1.1499035825
H -1.9721570585 1.0327847713 1.1738078313
*
