! r2scan-3c def2/J RI DEFGRID2 scfconv6 printgap
%output
    printlevel normal
end
%cpcm
    smd true
    smdsolvent "water"
end
* xyz 0 1
C 1.6043451243 0.3647047263 1.3435443837
C 1.1937384027 0.4399011575 -0.123263211
H 0.9189139686 1.4784896767 -0.3652740301
C 0.0279788636 -0.4993276923 -0.4615705566
C -1.2728122097 -0.2488494067 0.3091123887
C -1.8443802498 1.1392331922 0.0275821965
C -2.2968237793 -1.318919115 -0.0704696279
O 2.34268811 0.0896027547 -0.8861275056
H 1.7862144097 -0.6692681016 1.6242011595
H 2.524411904 0.9261176508 1.4833259211
H 0.8326470775 0.7849306069 1.9796610863
H -0.1836816536 -0.4164218251 -1.5317551699
H 0.3645519565 -1.5213086897 -0.2689153718
H -1.0717947927 -0.335669112 1.3809937682
H -2.8011035343 1.2583596416 0.5305824627
H -2.0001851821 1.2757958939 -1.0403962075
H -1.176572331 1.9191823885 0.3830894078
H -2.5308008009 -1.2611335356 -1.1313300894
H -1.9114315244 -2.3130515868 0.142835126
H -3.2172381192 -1.1802730196 0.4913731127
H 2.1185237506 0.1007339602 -1.8260176861
*
