! pbe def2-sv(p) def2/J RI DEFGRID1 loosescf d4 GCP(DFT/SV(P)) printgap
%output
    printlevel normal
end
* xyz 0 1
C -2.3954950925 0.2594860773 1.0414519562
C -1.7942890792 0.6062680551 -0.3239263352
C -0.5293744225 -0.1858522989 -0.5274333832
O -0.4504151559 -1.2252925859 -1.1510878532
O 0.5030763604 0.3709743235 0.0870914537
C 1.770307827 -0.3039051743 0.0168613839
C 2.7850115259 0.5132346068 0.7925927861
H -1.6990988369 0.5162072753 1.8353049829
H -3.3165676587 0.8155151605 1.187228141
H -2.6158319202 -0.8039120281 1.0977293171
H -1.5530545103 1.6675873704 -0.3610708939
H -2.4932777197 0.3499756973 -1.1190110765
H 1.6508216939 -1.3091537988 0.4343028756
H 2.0488358038 -0.4049493568 -1.0373374966
H 2.8658234701 1.5080125808 0.3649295775
H 2.4770960049 0.6020535991 1.8300192442
H 3.7517587346 0.0232660123 0.7463278798
*
