! pbe def2-sv(p) def2/J RI DEFGRID1 loosescf d4 GCP(DFT/SV(P)) printgap
%output
    printlevel normal
end
* xyz 0 1
C -2.7705172121 -0.9317028996 0.7871624997
C -2.4076754478 -0.2542512438 -0.542381987
O -1.397401309 0.7354877018 -0.4091165065
C -0.104270645 0.3548782509 -0.1893388701
C 0.81448308 1.3995044959 -0.0722028434
C 2.1509014617 1.1332596048 0.1413928918
C 2.5955482798 -0.1763162832 0.2417346578
C 1.6872050332 -1.2117436619 0.1261111186
C 0.3418222106 -0.9576158187 -0.0866634589
H -2.14530412 -0.5300649668 1.5813157355
H -3.8072018871 -0.7412267644 1.0454214913
H -2.6188939468 -2.0061519532 0.7418469199
H -3.2572815562 0.3082771322 -0.9343251611
H -2.1048492973 -0.9885940812 -1.2973484587
H 0.4492662768 2.4112105619 -0.1550384695
H 2.8492769657 1.9514844075 0.2297987532
H 3.6405863678 -0.3846932523 0.4096915839
H 2.0215445789 -2.2353934509 0.2041787849
H -0.3429099136 -1.785668552 -0.1672550615
*
