! r2scan-3c def2/J RI DEFGRID2 scfconv6 printgap
%output
    printlevel normal
end
* xyz 0 1
C 1.4782211514 -1.3622231482 -0.9493675565
O 1.4481943941 -0.2743954568 -0.0128073047
S 0.0732283062 0.4559552107 0.1036927056
O -0.4364776976 0.7829857814 -1.1972584917
O 0.2765871439 1.5257843869 1.0282307958
O -0.8242926264 -0.6445445596 0.7742754789
C -2.072168568 -1.0200163528 0.1699458521
H 2.5282897557 -1.5528197146 -1.1560802123
H 0.9487327183 -1.0587923081 -1.8517929567
H 1.0046066272 -2.233578791 -0.4986046295
H -2.0929242093 -2.1074193481 0.1232647645
H -2.1236628445 -0.5817444515 -0.8249368606
H -2.8824655536 -0.6448094613 0.7931164041
*
