! r2scan-3c def2/J RI DEFGRID2 scfconv6 printgap
%output
    printlevel normal
end
* xyz 0 1
C -4.0840053857 0.4970641705 0.9478491985
C -3.449669148 0.5016319642 -0.4351569984
O -2.0236249444 0.6322334115 -0.3522978626
C -1.2999562336 -0.4785173034 -0.1950660246
O -1.7973981987 -1.5917108005 -0.1459231474
C 0.1434781625 -0.2154470152 -0.1017290345
C 0.6614720096 1.0784785363 -0.158021337
C 2.0206835226 1.2872021683 -0.0664695151
C 2.889859286 0.2059139541 0.0833078718
C 2.3730462806 -1.0909883675 0.1405919415
C 1.0162817765 -1.2956776726 0.0491831723
O 4.2243338914 0.3578700428 0.1768093177
H -5.1640185566 0.4652702523 0.848119198
H -3.7542164832 -0.3774565847 1.5044816596
H -3.7982291467 1.3922331797 1.4935548889
H -3.7709304186 1.3669418436 -1.0161438077
H -3.6864160363 -0.424019805 -0.9691790687
H -0.0115803653 1.9125874586 -0.2739484546
H 2.4131799391 2.291977304 -0.1109897572
H 3.0580262605 -1.9151287189 0.2568457799
H 0.6009215871 -2.2909407177 0.0915562133
H 4.4793746146 1.2932347591 0.125910268
*
