! r2scan-3c def2/J RI DEFGRID2 scfconv6 printgap
%output
    printlevel normal
end
%cpcm
    smd true
    smdsolvent "water"
end
* xyz 0 1
C -3.0119842375 0.2691247399 -0.1744333252
C -1.5749742629 0.1573641823 -0.6723779197
C -0.6038464963 0.0398935202 0.4980417923
C 0.8867480029 -0.0815693132 0.1363879492
C 1.3920562221 1.1568866553 -0.6111978631
C 1.1699063344 -1.342413586 -0.6870867811
O 1.542332373 -0.178284957 1.4028818773
H -3.282524884 -0.6083101504 0.4084316353
H -3.7001418 0.3519971548 -1.0120578617
H -3.1296043112 1.1470927622 0.4565471336
H -1.4899399006 -0.7192962277 -1.3156051632
H -1.3360134573 1.0400515075 -1.2667776076
H -0.7086139793 0.913197325 1.1461624695
H -0.8624671641 -0.8357040854 1.0981727706
H 0.9017311827 1.2468041439 -1.5750328535
H 2.4647205972 1.0813972839 -0.7782234996
H 1.1940803867 2.0512843857 -0.0254108561
H 0.8119733803 -2.2213302303 -0.1563619494
H 2.2401900176 -1.4485434806 -0.8526501207
H 0.6788790828 -1.2851418837 -1.653048698
H 2.4950437951 -0.2582690064 1.2589062847
*
