! wb97x-v def2-tzvp def2/J RIJCOSX DEFGRID2 scfconv7 GCP(DFT/TZ) printgap
%output
    printlevel normal
end
%cpcm
    smd true
    smdsolvent "water"
end
* xyz 0 1
C -2.1491220557181907 0.6977725503906604 -0.3517246442415302
C -1.6230660742360719 -0.4560958184812926 0.5001501796993505
C -0.2652257864334823 -0.965899819072869 0.03196166305525201
C 0.9091802053069736 -0.07979516027725844 0.3586181792246083
O 0.7917253241145226 0.951855083272209 1.0131555273687338
C 2.2553504332060323 -0.5528146608608249 -0.11029289028039171
H -3.1193991701405044 1.047684124027756 0.014842232477134646
H -2.278564229301968 0.38169725824500006 -1.3927810129139246
H -1.4611209413863386 1.5489414652360067 -0.34333595372056946
H -2.3363836977016064 -1.2867979516202792 0.46373138986884715
H -1.5527126047061155 -0.14843892566469147 1.5497681138652948
H -0.029168446373569537 -1.9473013494542553 0.469716562786113
H -0.25838139141553423 -1.135862466273244 -1.0538844176969517
H 2.605092847862769 -1.3205703716649393 0.5918523043700596
H 2.974859691478465 0.2679222064279381 -0.11467561590865887
H 2.1962330169257105 -1.0217687571533813 -1.0959214271684297
*
