! r2scan-3c def2/J RI DEFGRID2 scfconv6 printgap
%output
    printlevel normal
end
%cpcm
    smd true
    smdsolvent "water"
end
* xyz 0 1
C 1.7868806169 -0.7612837137 0.9598087931
C 1.1777713263 0.4363511931 0.231889083
H 0.8610155693 1.1872078613 0.9628220733
C -0.0065047517 0.0393084293 -0.6606293625
C -1.2422176872 -0.4909205547 0.0747549893
C -1.8827374266 0.5781460456 0.9571384406
C -2.2597696909 -0.9967624066 -0.9481989664
O 2.161505054 1.1138463108 -0.5372631356
H 2.0294370562 -1.5524363547 0.2532483012
H 2.6971942643 -0.4526179678 1.4682493351
H 1.0931232649 -1.1498392999 1.6982151349
H -0.2917468703 0.9191755345 -1.2434245813
H 0.3383882548 -0.7261518287 -1.361728054
H -0.9455190111 -1.3346241611 0.7055269477
H -1.2111830852 0.8859171196 1.7538730949
H -2.7926790805 0.1932730817 1.4115212055
H -2.1386871316 1.4535932089 0.3643750041
H -2.575084361 -0.1854768885 -1.6006288703
H -1.8307056871 -1.7849816803 -1.5622589884
H -3.1383158622 -1.3942078425 -0.4459271284
H 2.5102193257 0.5025405729 -1.2013932953
*
