! pbe def2-sv(p) def2/J RI DEFGRID1 loosescf d4 GCP(DFT/SV(P)) printgap
%output
    printlevel normal
end
* xyz 0 1
C -2.4111422871 0.2602067248 1.0250905745
C -1.788595556 0.614569665 -0.3287806408
C -0.5276129199 -0.1866613129 -0.5205929354
O -0.4487200499 -1.2221781488 -1.1507885856
O 0.5004883617 0.3572421238 0.11250819
C 1.7632642934 -0.3272700528 0.0567004402
C 2.8015993946 0.5388329323 0.7428761113
H -2.6415169261 -0.8016953223 1.0681549868
H -1.7228861767 0.5030191551 1.8303479713
H -3.3290752224 0.8230505532 1.1643000612
H -1.5384297071 1.6742073503 -0.3530923102
H -2.4785063685 0.3707792989 -1.1356376732
H 1.6517516832 -1.2974110207 0.5519366
H 2.0118707729 -0.5085805007 -0.9941887029
H 2.8792905119 1.4971079081 0.2379598938
H 2.5183923773 0.7098730794 1.7770916111
H 3.763674322 0.0383066096 0.7123522219
*
