! pbe def2-sv(p) def2/J RI DEFGRID1 loosescf d4 GCP(DFT/SV(P)) printgap
%output
    printlevel normal
end
* xyz 0 1
C 0.7232084137 -2.8318646855 -0.1468839015
O 1.4498714294 -1.6237024697 -0.0167063291
C 0.8457086385 -0.4225936214 -0.0140871171
C 1.7224024513 0.6799203254 0.0079750087
C 1.269140595 1.9809368896 0.0292970161
C -0.0934722862 2.2380956992 0.0244064027
C -0.9670344536 1.1711172275 0.0132972176
C -0.5279558106 -0.1565994444 0.0074917653
C -1.6160238922 -1.1975213978 -0.0294256728
O -1.981771858 -1.7287786561 -1.0499330637
O -2.1989824907 -1.4717203806 1.1291899808
Cl -2.6843381186 1.4562324647 -0.0305690327
Cl 3.41941042 0.3503603702 -0.0015790653
H 1.4797372704 -3.6133460241 -0.1251197024
H 0.1780376505 -2.8708940889 -1.091765961
H 0.0282702879 -2.976484286 0.682738905
H 1.9786895255 2.7908446792 0.0415279545
H -0.4664523117 3.2472437814 0.0269002302
H -1.8634572456 -0.9615038615 1.889781709
*
