! wb97x-v def2-tzvp def2/J RIJCOSX DEFGRID2 scfconv7 GCP(DFT/TZ) printgap
%output
    printlevel normal
end
%cpcm
    smd true
    smdsolvent "water"
end
* xyz 0 1
C 2.841263588182964 -0.42769890406453337 0.14039512899639525
C 1.4244430636319376 -0.29571269505973746 -0.41117697092319216
C 0.623622384468706 0.781481391450841 0.3156824022576931
C -0.7868860694065027 0.9881332032425995 -0.21931011100189646
S -1.9243191434698679 -0.452641455731596 0.03633847643022516
H 3.4084920138576624 -1.196558188069661 -0.3937109341461891
H 2.823718983114864 -0.7008588108847503 1.2015824868577194
H 3.3885838995433217 0.5172099782036916 0.04888943108895583
H 0.90326931932928 -1.2563883220617431 -0.32683257123503906
H 1.462411507864388 -0.05112871091978042 -1.4809381790431748
H 1.1491502346289446 1.742568184997513 0.22196914711402757
H 0.5792607988837843 0.5547903102383058 1.389179845983859
H -1.2537983397010273 1.8675556366960586 0.23170605527310917
H -0.7718987615870648 1.1408757682521034 -1.303984230812483
H -1.914328623321846 -0.4071116083077821 1.382625453920242
*
