! wb97x-v def2-tzvp def2/J RIJCOSX DEFGRID2 scfconv7 GCP(DFT/TZ) printgap
%output
    printlevel normal
end
* xyz 0 1
C -2.573544584907889 -0.40654874353321463 0.19843106496276156
C -1.7281658749433317 -1.2408605822475673 -0.5289325113712813
C -0.42163654125369776 -0.843920310635791 -0.8063658224589678
C 0.06179696097557926 0.390418514498838 -0.36191664359792053
C -0.795794875613895 1.2184062160779405 0.3706740419034769
C -2.102547432433996 0.8261123504251509 0.6479313865188527
C 1.4851592849315995 0.8036398027302613 -0.6197343573523271
C 2.4194170116913862 0.46594065322076195 0.5435869709027813
O 2.481053873735377 -0.943223797596541 0.8171063596244539
H -3.593469548693173 -0.7123234716275398 0.40980703978378286
H -2.0872424339728393 -2.201879397794703 -0.8849305628630784
H 0.23145550113781868 -1.49627310379848 -1.3798070477168989
H -0.4347997766395257 2.1819772655680247 0.7218693199106817
H -2.7556496868669926 1.4857498289563689 1.211278504270185
H 1.862511674344265 0.31499749921629266 -1.526326046001457
H 1.5400642473132529 1.887137449409107 -0.7802869065337088
H 3.4236997413465216 0.8551113396375551 0.32854498249767955
H 2.0597496685587857 0.9340198410834318 1.465256047631095
H 2.7928153684139496 -1.37857441256173 0.012709670100068684
*
