! r2scan-3c def2/J RI DEFGRID2 scfconv6 printgap
%output
    printlevel normal
end
%cpcm
    smd true
    smdsolvent "water"
end
* xyz 0 1
C 1.7523379834 0.8313437324 0.9598308431
C 1.3620042301 0.590929613 -0.4947024129
C 0.2462055525 -0.4326656575 -0.7708743729
H 0.1247153556 -0.4249854024 -1.8633075111
C 0.6904532365 -1.8451637297 -0.388801261
C -1.1573310452 -0.1065136689 -0.208913636
C -1.3566741263 -0.4024931418 1.2774933065
C -1.5639692461 1.3353089151 -0.5132847755
H 0.9855976764 1.3889231856 1.4900645427
H 1.9302718982 -0.1040519358 1.4824084429
H 2.6695662344 1.4162916834 0.9947767498
H 2.247707786 0.2349925163 -1.0287583682
H 1.0843018105 1.5458451929 -0.9441083703
H -0.0897051193 -2.5644432416 -0.6283446804
H 1.5863925264 -2.11596462 -0.9433052088
H 0.9130371445 -1.920210516 0.6712152116
H -1.849566212 -0.7629194285 -0.7535596473
H -0.706668733 0.2022254839 1.9000438321
H -1.172322376 -1.4499960234 1.496514109
H -2.3868471241 -0.1805449359 1.5502354621
H -2.6171890412 1.4818512433 -0.2835878728
H -1.4095918515 1.5648814451 -1.5653798204
H -0.988261649 2.0367203353 0.0845429565
*
