! r2scan-3c def2/J RI DEFGRID2 scfconv6 printgap
%output
    printlevel normal
end
* xyz 0 1
C 1.8468705843 -1.069587771 0.3823613761
C 1.2865849603 0.2720168975 0.8440489988
C 0.1811333819 0.8678047548 -0.045732102
H -0.0324738163 1.8728029977 0.3647898656
C -1.1783459733 0.135900861 -0.0860722992
C -1.1548785004 -1.1778294131 -0.8649759603
C -1.751343536 -0.0700100681 1.3129324994
O 0.6173249524 1.0125531411 -1.3877797384
H 2.8240604436 -1.2367385995 0.8295860715
H 1.9533457998 -1.0804479555 -0.6994381858
H 1.200227104 -1.8911164124 0.6739791841
H 0.9101106769 0.195437492 1.8634998613
H 2.1022502361 1.0012910243 0.8567418441
H -1.8398175577 0.8186891484 -0.6337899801
H -0.6109579798 -1.0462364686 -1.7960076478
H -0.6893117138 -1.972226958 -0.2911604162
H -2.1734641736 -1.4794847991 -1.0981305574
H -2.7767494647 -0.422989338 1.2394925595
H -1.7466831368 0.8615194864 1.8744343064
H -1.1762800229 -0.8119623203 1.8606302407
H 1.4320606253 1.5320449954 -1.3975145289
*
