! pbe def2-sv(p) def2/J RI DEFGRID1 loosescf d4 GCP(DFT/SV(P)) printgap
%output
    printlevel normal
end
* xyz 0 1
C -2.4598448364 0.2713723161 0.9717111605
C -1.7690566613 0.6330538789 -0.3466192056
C -0.5192698424 -0.1948979217 -0.49534381
O -0.4391911866 -1.2244257666 -1.1350556778
O 0.491762394 0.3214696671 0.185976121
C 1.7494613708 -0.3748458859 0.1779645816
C 2.8373931834 0.6014165089 0.5831803124
H -3.3711375726 0.851806088 1.0786094413
H -2.7141337947 -0.7858540025 0.986781211
H -1.803960652 0.4866071359 1.8111740136
H -1.4941700256 1.6868054478 -0.3415905137
H -2.4273241599 0.4182756347 -1.1874454108
H 1.6789100068 -1.2108233587 0.8811834079
H 1.9146191687 -0.7810708794 -0.8253173601
H 3.7920112367 0.0862776428 0.6048184582
H 2.8888238646 1.4210686573 -0.1276184252
H 2.6242358652 1.005072108 1.5684449365
*
