! r2scan-3c def2/J RI DEFGRID2 scfconv6 printgap
%output
    printlevel normal
end
%cpcm
    smd true
    smdsolvent "water"
end
* xyz 0 1
C -1.0181307248 -0.4205072961 -0.3491566239
C 0.1491047977 0.3456544166 0.2827059722
C 1.4815184391 -0.1037900517 -0.3305218939
O 1.6990900814 -1.4506199019 0.020008251
O -0.0895832081 1.7198482804 0.0583681502
O -2.2384580356 -0.15610826 0.2963243557
H -0.8367842686 -1.4917900848 -0.2540930511
H -1.0797285926 -0.1509463772 -1.4120858908
H 0.1638768458 0.1235040827 1.3594767443
H 2.2878895448 0.5317028586 0.0606747164
H 1.4291321264 0.0204862392 -1.419894672
H 2.5289250767 -1.7548107191 -0.3736637037
H 0.5656852804 2.2517036162 0.5297581373
H -2.373958705 0.8032835425 0.2924379782
*
