! r2scan-3c def2/J RI DEFGRID2 scfconv6 printgap
%output
    printlevel normal
end
%cpcm
    smd true
    smdsolvent "water"
end
* xyz 0 1
C 1.7940245721 -1.1563658088 0.1150331255
C 1.2204924451 0.2170986475 0.4473948821
H 0.9784124642 0.2565439695 1.5231809197
C -0.0480395783 0.5207412803 -0.3613635719
C -1.2680089849 -0.312323396 0.0780501745
C -2.3779556501 0.5887697311 0.6185163342
C -1.7972011567 -1.1643471179 -1.0740703766
O 2.2439921742 1.1629553415 0.1719571122
H 2.064223725 -1.1894390484 -0.9372347452
H 2.6896840724 -1.3299441409 0.7052035072
H 1.0690233466 -1.9350413405 0.3270145122
H -0.2780243283 1.5830729461 -0.2521619423
H 0.1731546708 0.3455541968 -1.415529716
H -0.9613468203 -0.9846187204 0.8865691364
H -3.2226308856 -0.0083904182 0.954290783
H -2.72612001 1.2681444731 -0.1565925407
H -2.0191481649 1.175982639 1.4606363989
H -1.0206793379 -1.8259397245 -1.449881955
H -2.636149014 -1.7725062215 -0.743516362
H -2.1354329465 -0.5287468659 -1.8895102855
H 1.9182522125 2.0530799859 0.3604893278
*
