! wb97x-v def2-tzvp def2/J RIJCOSX DEFGRID2 scfconv7 GCP(DFT/TZ) printgap
%output
    printlevel normal
end
%cpcm
    smd true
    smdsolvent "water"
end
* xyz 0 1
C -2.747472786587601 -0.33623056047839955 0.007026581515140472
C -1.3353473586281137 -0.02201809054664442 0.48800659620938286
C -0.30785733270387755 -0.1513997083664941 -0.6546824600308248
C 1.0689749607001455 0.16923002894454967 -0.1381192174411597
O 1.487328925466191 1.3249417290143006 -0.1262694105230515
C 1.8833386679660336 -0.9707606599663898 0.3904408727961123
H -3.4677819238514536 -0.24315517483724086 0.8258725993859889
H -2.810121721930053 -1.3571878447170969 -0.38420074316699304
H -3.0514513006279147 0.34984791687367384 -0.7906358739104665
H -1.0591277506794015 -0.7007835751291852 1.3033987048831521
H -1.2927264402467968 0.9972214454191736 0.888970433280518
H -0.33466563399094706 -1.172616397707807 -1.0498960990633435
H -0.5619298261331983 0.5525214382355221 -1.4537456139861031
H 1.2694309407619153 -1.6154936781506004 1.02815385297105
H 2.7620608968660476 -0.6164900116223262 0.9312835916501722
H 2.2007374868128418 -1.587648672600581 -0.45994206829050194
*
