! pbe def2-sv(p) def2/J RI DEFGRID1 loosescf d4 GCP(DFT/SV(P)) printgap
%output
    printlevel normal
end
* xyz 0 1
C 2.7607230738 1.5705596638 0.4182415443
C 2.1422316307 0.3134575008 1.0245850675
C 1.3642821352 -0.6109817066 0.0619147905
H 1.4929025186 -1.6336327557 0.4358841113
C 1.9037651071 -0.5828942935 -1.3717912239
C -0.1234504032 -0.3463255179 0.0382756191
C -0.6564780852 0.9337324139 -0.0449955865
C -2.02550644 1.1325464222 -0.0901821852
C -2.8902200394 0.0526367998 -0.0592859911
C -2.3734517243 -1.2291660397 0.0187634707
C -1.0046334443 -1.4222041555 0.0677070998
H 3.2293697237 2.1541715735 1.2080076522
H 3.5247814592 1.315991056 -0.3107874029
H 2.0207058267 2.1990448511 -0.0681627626
H 2.9544386939 -0.2677619336 1.4674868615
H 1.470891764 0.6002912969 1.8375015706
H 1.3833011246 -1.3261622452 -1.9723042392
H 1.7460436327 0.3907239469 -1.8270740079
H 2.9661218317 -0.8135555363 -1.382776797
H -0.0042657755 1.7915184722 -0.0704642097
H -2.418338718 2.1370817185 -0.1509401721
H -3.9581766093 0.2083435255 -0.0950051965
H -3.037967324 -2.0804514121 0.0439606345
H -0.6120063872 -2.4276196422 0.131140054
*
