! r2scan-3c def2/J RI DEFGRID2 scfconv6 printgap
%output
    printlevel normal
end
* xyz 0 1
C -2.2584516871 0.6059481844 -0.9810200978
C -1.8532620902 -0.3892202002 0.1005097741
C -0.5944835039 -0.0161269892 0.8877567263
C 0.7686615417 -0.0447743637 0.1589167172
C 1.0414131352 1.2442347733 -0.6230750357
C 0.9093871946 -1.2628467146 -0.7540061667
O 1.7899689332 -0.2011890961 1.1522954576
H -2.2619694122 1.619663609 -0.5877223399
H -3.2591716155 0.3743630785 -1.3389813979
H -1.5841356485 0.5653760145 -1.8315744026
H -2.6680939437 -0.4537978717 0.8262776539
H -1.7356427878 -1.3796113952 -0.3397200964
H -0.7345420994 0.9784691311 1.3203365785
H -0.5072107446 -0.72581925 1.7158714274
H 2.0693917155 1.2347385913 -0.9795865836
H 0.9032577892 2.1151678312 0.0146565107
H 0.3798566353 1.3324188385 -1.4766823235
H 1.9361696109 -1.3221014507 -1.1060278147
H 0.2451779346 -1.1868231044 -1.6077832018
H 0.6881784389 -2.1693396778 -0.1970061913
H 1.7904168896 0.5758026322 1.7267467693
*
