! r2scan-3c def2/J RI DEFGRID2 scfconv6 printgap
%output
    printlevel normal
end
%cpcm
    smd true
    smdsolvent "water"
end
* xyz 0 1
C 3.5699482542 0.3078438427 -0.7748413408
C 2.5756694183 -0.1553280485 0.2461811361
C 2.9479701673 -0.6095705729 1.4323475098
C 1.127771054 -0.0321563494 -0.1726151991
H 1.0905095099 0.0173649285 -1.2656709053
C 0.2516031993 -1.2069760202 0.2698260683
C -1.1244008205 -1.08610024 -0.3766275598
C -1.7045043095 0.281993239 -0.1554623924
C -0.9456349335 1.3328076875 0.1944410951
C 0.5251331488 1.2666371141 0.3822510188
C -3.1361239783 0.4452723499 -0.3183163455
O -3.9227410373 -0.4387548705 -0.6080664805
H 4.5820254706 0.2708212095 -0.3819159749
H 3.5162350249 -0.323246051 -1.661119918
H 3.3483124707 1.3289719422 -1.0812842792
H 2.2433030843 -0.9430201445 2.1736721114
H 3.9863787145 -0.6726265438 1.7103047245
H 0.7174003665 -2.1507253461 -0.0151688075
H 0.1378299769 -1.1971026891 1.3540285056
H -1.0579700854 -1.2707390876 -1.4528448268
H -1.8161190037 -1.8284091669 0.0279481029
H -1.4118024122 2.2937557735 0.3677628759
H 0.9900952569 2.1364566521 -0.0870931884
H 0.739154707 1.3395454381 1.4538425157
H -3.5051121786 1.4759349246 -0.155763905
*
