! r2scan-3c def2/J RI DEFGRID2 scfconv6 printgap
%output
    printlevel normal
end
* xyz 0 1
C -1.6008494103 -0.1665885079 1.5072863661
C -1.2985051114 -0.4716571238 0.0411730685
C -2.5134817517 -0.1284947285 -0.8210960803
C -0.0147151536 0.2231413318 -0.4661003141
C -0.0448356101 1.7341530906 -0.2384006213
C 1.2468828689 -0.4875482049 0.1041726452
C 1.9987233332 -1.1977512707 -1.0233835938
C 2.2196093 0.4142938818 0.8633777846
H -0.7269065362 -0.3377212053 2.1306736612
H -1.917554225 0.8659446593 1.6281636101
H -2.4037978745 -0.8089690581 1.8625780582
H -1.1296690042 -1.5516944023 -0.0542938049
H -2.3148546025 -0.3427742536 -1.8689188648
H -2.7781788415 0.9215297888 -0.7269877082
H -3.3709487213 -0.7199123816 -0.5077018503
H 0.0007143118 0.0772773912 -1.5526506268
H -0.9389697351 2.1568053223 -0.6893544638
H 0.8143685651 2.2039631357 -0.7092662423
H -0.0406163404 1.9868213721 0.8168394005
H 0.9128758958 -1.2573090827 0.8086423221
H 2.8470302575 -1.7525964395 -0.628137317
H 1.344956897 -1.8970337249 -1.5400827846
H 2.3706079013 -0.4735160968 -1.7454088778
H 3.03701488 -0.1892604706 1.2533629805
H 1.7350440698 0.9036962604 1.7031322276
H 2.6443452587 1.1734785703 0.212317929
*
