! r2scan-3c def2/J RI DEFGRID2 scfconv6 printgap
%output
    printlevel normal
end
%cpcm
    smd true
    smdsolvent "water"
end
* xyz 0 1
C -2.8799769214 -0.1590057002 0.2774951316
C -1.6612551685 0.7445126702 0.1521113183
C -0.4048295782 -0.0322474993 -0.1473252149
O -0.3380227189 -1.2342321446 -0.2875521968
O 0.6438835002 0.7806713237 -0.2530612735
C 1.9321967164 0.202489913 -0.5223315622
C 2.6205859647 -0.2309507066 0.762944813
H -2.734316638 -0.8803342705 1.0774081123
H -3.7645249471 0.4329984134 0.4906867619
H -3.0365164261 -0.7115096979 -0.645356802
H -1.4905612267 1.3027418186 1.0741490879
H -1.7947820441 1.4736668723 -0.6488656598
H 1.7981130487 -0.6511308399 -1.1937830081
H 2.4887835987 0.9951969032 -1.023042565
H 3.614879536 -0.5987983957 0.5317291151
H 2.6982363744 0.6093061576 1.4475662164
H 2.0521054607 -1.0262652613 1.2399457769
*
