! r2scan-3c def2/J RI DEFGRID2 scfconv6 printgap
%output
    printlevel normal
end
* xyz 0 1
C 3.2739013297 -0.9683127905 0.0530903868
C 2.0183946581 -0.2524831584 0.4529981523
C 1.5242043273 -0.3470089548 1.6774397935
C 1.3837346267 0.5641978098 -0.6501998162
H 2.1952468602 0.9452165975 -1.2791410525
C 0.4782958586 -0.3138781969 -1.5289947462
C -0.6967837501 -0.8579368835 -0.7256762671
C -1.4113750432 0.2472198447 -0.0054190562
C -0.8134158142 1.4195768656 0.262962242
C 0.5737403501 1.760566519 -0.1386697351
C -2.7781511775 0.0174763113 0.4145400098
O -3.4225488366 -0.9978872439 0.2156709198
H 3.6294468306 -1.6102787702 0.8540631017
H 3.1011196464 -1.5767812517 -0.8326793607
H 4.0541647127 -0.2472401067 -0.1877077736
H 0.6261268387 0.1592175683 1.9862648354
H 2.0031665416 -0.9518529826 2.429635498
H 0.1000132613 0.291708075 -2.3544134845
H 1.047858685 -1.1420689379 -1.9508996512
H -1.4076030798 -1.3783256205 -1.3710758441
H -0.3422373131 -1.5826929485 0.0133423366
H -1.3661039486 2.1930735363 0.780728681
H 0.5059236802 2.5152203322 -0.9290819723
H 1.0902241869 2.2350518951 0.6987382771
H -3.2429967963 0.8627451543 0.9581906326
*
