! r2scan-3c def2/J RI DEFGRID2 scfconv6 printgap
%output
    printlevel normal
end
%cpcm
    smd true
    smdsolvent "water"
end
* xyz 0 1
C 2.5808023362 -1.5028393202 -0.085369539
O 1.1779456827 -1.3693326372 0.0446699104
C 0.6408442309 -0.1167402498 0.0392210046
C 1.3554463808 1.0593316693 -0.1523587219
C 0.7029830931 2.2816927774 -0.1576241382
C -0.6636276628 2.3511980208 0.0307673275
C -1.3863903945 1.1862030988 0.2296792929
C -0.7487448793 -0.0418845407 0.2399010247
O -1.452510385 -1.2113446516 0.4907561039
C -2.2439206356 -1.6669239539 -0.5950442523
H 2.9251826245 -1.1266313807 -1.0522191581
H 2.771278163 -2.571514403 -0.019367443
H 3.1024341127 -0.985183992 0.7232514266
H 2.4219306278 1.0302459218 -0.304592335
H 1.275737751 3.1828893952 -0.3111212902
H -1.1693272778 3.303442312 0.0282243192
H -2.4531493212 1.2189956169 0.3913816114
H -2.9624350746 -0.9048590533 -0.9099425976
H -2.7705848176 -2.5443287708 -0.2278133753
H -1.6116000216 -1.9426847947 -1.4446985126
*
