! wb97x-v def2-tzvp def2/J RIJCOSX DEFGRID2 scfconv7 GCP(DFT/TZ) printgap
%output
    printlevel normal
end
%cpcm
    smd true
    smdsolvent "water"
end
* xyz 0 1
C -2.66916173650702 -0.5679433161943874 -0.13536363696578874
C -1.2665341844742104 -0.31080913603526167 0.4078266355659953
C -0.5435441431890032 0.7882121291229354 -0.3648362168782462
C 0.8712576365979455 1.0815346468262448 0.16718659078831186
C 1.7738374983754153 -0.051377690040681344 0.03852451092838778
C 2.508751312720087 -1.0007605756061257 -0.09187943697056894
H -3.282247889283329 0.3388452637777959 -0.08488113148225064
H -3.1810747601487566 -1.3504831304232727 0.4336907471633193
H -2.6302462701685405 -0.8861717206581963 -1.1831189301683729
H -1.3233437728257187 -0.027720188542892116 1.4670046448376237
H -0.6787492641044688 -1.2363661613687786 0.361602952613717
H -0.4796475181527979 0.5168435504550346 -1.425588902114382
H -1.1202253825826105 1.7188099841709763 -0.30457366831847005
H 0.8126526703227827 1.372418104457522 1.2237756362214451
H 1.2985900723678194 1.9359364906155563 -0.370914344774889
H 3.162632444519905 -1.8374231148361915 -0.196325621549015
*
