! r2scan-3c def2/J RI DEFGRID2 scfconv6 printgap
%output
    printlevel normal
end
%cpcm
    smd true
    smdsolvent "water"
end
* xyz 0 1
C 2.3257466479 0.9020694551 0.4957719886
C 1.1492635712 -0.0717080821 0.4819603495
C 1.5017500183 -1.3206183625 -0.3377715189
C -0.0695224766 0.5762289258 -0.1445674585
O 0.0411473251 1.5034559503 -0.9252105496
C -1.4549889357 0.0316700589 0.1670397705
C -1.5762176474 -0.8329830768 1.416157578
C -1.9589311994 -0.7211450851 -1.0738374731
H 3.2047647354 0.4243451214 0.9190039689
H 2.0832582334 1.7819097219 1.0874097721
H 2.5524771472 1.2293530356 -0.5162117597
H 0.9166049923 -0.3715081654 1.5048395274
H 1.6610544727 -1.0498037987 -1.379304111
H 2.4164885503 -1.7607551026 0.0500742371
H 0.7118865664 -2.0638849136 -0.2871080113
H -2.0898417385 0.9183077309 0.2854647515
H -1.0019358101 -1.750093768 1.3230804069
H -1.2451464764 -0.2920249376 2.2990396547
H -2.6199058278 -1.1029654021 1.5589184769
H -1.8508176981 -0.0980286834 -1.9586555252
H -1.3957598861 -1.6383601177 -1.2233356987
H -3.0083920232 -0.9739436273 -0.9499281119
*
