! r2scan-3c def2/J RI DEFGRID2 scfconv6 printgap
%output
    printlevel normal
end
%cpcm
    smd true
    smdsolvent "water"
end
* xyz 0 1
C 2.1982412236 1.0515925002 0.1728501752
C 1.3861187994 0.3696728412 -0.9256902929
C 0.2574164343 -0.5762610155 -0.4631490326
H 0.1246226437 -1.3066786929 -1.2724141085
C 0.6524104742 -1.3642298757 0.7844990191
C -1.1086362967 0.1355180893 -0.3403715552
C -2.2340849452 -0.8729771839 -0.0995837207
C -1.169648317 1.2275862284 0.7250562446
H 2.90164318 1.7472428428 -0.2806919721
H 1.5675706655 1.6071189828 0.8590025015
H 2.7683860695 0.3236422431 0.7431107095
H 2.0844354565 -0.2088208409 -1.536233628
H 0.9523535426 1.1340319736 -1.5748682379
H -0.0778770509 -2.1414548726 0.9913623176
H 1.6151758619 -1.8445092089 0.6246340519
H 0.7295694036 -0.7208550273 1.6554309324
H -1.2965744242 0.6098157017 -1.3123613143
H -3.2007078009 -0.389469468 -0.2226358207
H -2.185375207 -1.2741705124 0.9092831903
H -2.1731930901 -1.6977286212 -0.8062591563
H -2.1809303003 1.6260599644 0.7789521382
H -0.5011246102 2.0485180418 0.483747891
H -0.9112945717 0.8340191522 1.7044391965
*
