! wb97x-v def2-tzvp def2/J RIJCOSX DEFGRID2 scfconv7 GCP(DFT/TZ) printgap
%output
    printlevel normal
end
%cpcm
    smd true
    smdsolvent "water"
end
* xyz 0 1
C 3.0794616970062667 -0.4639342549123185 0.17854706499232323
C 1.8917381919447662 0.2884433448539812 -0.4148851616926468
C 0.5577583400601887 -0.20694673355057414 0.14549747734843702
C -0.6171336801720985 0.5532699572074908 -0.45339664493905024
S -2.2004999906731033 -0.09847372160213214 0.25859632899430723
H 4.026941879551638 -0.10043261844740552 -0.23189867579900778
H 3.010182894555714 -1.53632144953536 -0.0355050487260289
H 3.116102097758436 -0.34201203027824856 1.266820268049638
H 1.889181732328445 0.17509683798393044 -1.5064366638056035
H 1.993317733185534 1.3618496015862493 -0.21029417612185014
H 0.5563548397794813 -0.09123149350448423 1.2371049899800473
H 0.45144908831301356 -1.2792071959656814 -0.06423364749105219
H -0.5433671961589679 1.6199111293807558 -0.22288498201464882
H -0.644600628646743 0.42680224573242215 -1.5394440943064058
H -3.0339003887432496 0.7186629340606571 -0.41194306373636064
*
