! r2scan-3c def2/J RI DEFGRID2 scfconv6 printgap
%output
    printlevel normal
end
* xyz 0 1
C 1.8116063758 -0.6657517138 -0.5288243789
C 1.3860140012 0.5577559681 0.2750470254
C -0.0349057962 0.4308883974 0.827717625
C -1.1213588116 0.5014958153 -0.2594582085
C -2.0270972991 -0.7252751396 -0.2605489774
H 2.822319214 -0.5380950922 -0.9092041866
H 1.1473231543 -0.8269339865 -1.3740188012
H 1.7898481484 -1.5549686954 0.097490574
H 2.0783480472 0.6893047334 1.1100059613
H 1.4518690683 1.4503955619 -0.3512587383
H -0.1958933154 1.2253909134 1.5587441642
H -0.1146099193 -0.518617635 1.3608275384
H -1.7343137643 1.3926961909 -0.1121390565
H -0.6534999569 0.5957270961 -1.2408579953
H -2.7800618685 -0.6434787465 -1.0413919444
H -2.5353681689 -0.8249735947 0.6960728642
H -1.4458767857 -1.6275660777 -0.4369832387
*
