! pbe def2-sv(p) def2/J RI DEFGRID1 loosescf d4 GCP(DFT/SV(P)) printgap
%output
    printlevel normal
end
* xyz 0 1
C -2.4144874494 -0.0552817843 0.1586823506
O -1.1741761654 0.1522028485 -0.4857483303
C -0.0687004708 -0.1055186333 0.3525992202
C 1.2081985722 0.1467911061 -0.443188727
O 2.3098470262 -0.1287122585 0.3926027286
H -2.5123605508 -1.0939969709 0.4915193289
H -3.1794321931 0.1708462719 -0.5794616554
H -2.5213660133 0.6090057762 1.0227237736
H -0.0885700176 0.5513819983 1.2341309552
H -0.0817194989 -1.1478998551 0.7025641694
H 1.2148962687 1.191444152 -0.7776333252
H 1.2060825992 -0.5053810457 -1.3250857058
H 3.1284758167 0.0186616531 -0.1016260309
*
