! r2scan-3c def2/J RI DEFGRID2 scfconv6 printgap
%output
    printlevel normal
end
* xyz 0 1
C 1.6616521964 1.2281158677 -0.5957877684
C 1.4464989191 -0.2284683973 -0.1878696254
H 2.1579213604 -0.8563221571 -0.7389601855
C 0.0316413197 -0.7528802373 -0.4916798387
C -1.1258721439 0.0430815321 0.1384807576
C -1.758678687 1.0039685982 -0.867659037
C -2.1959911507 -0.9073685374 0.6763831121
O 1.8002813561 -0.438174561 1.1699346302
H 1.0026346603 1.8888757778 -0.0384112225
H 2.6903886331 1.5135400952 -0.3883837525
H 1.4727105028 1.3473645261 -1.6583339773
H -0.0936671521 -0.7860702707 -1.5744342865
H 0.0009641312 -1.7815389001 -0.1256123932
H -0.7466590535 0.6285687401 0.9835705649
H -2.2030812329 0.4446773322 -1.6882539484
H -1.0229410488 1.6884324621 -1.2788879525
H -2.542396153 1.5885091847 -0.390421548
H -1.7823442445 -1.5664688744 1.4361999068
H -3.0160137417 -0.3460534276 1.1188200862
H -2.5952646553 -1.5192117118 -0.1296299138
H 1.227724454 0.1060228717 1.7283653026
*
