! r2scan-3c def2/J RI DEFGRID2 scfconv6 printgap
%output
    printlevel normal
end
* xyz 0 1
C 2.1643518583 -0.3852192393 1.1960665176
C 1.3194295647 -0.5077992946 -0.0663459534
C 0.2790019 0.6146636054 -0.2090759519
H 0.5416857283 1.4215487538 0.4956759531
C -1.1770098478 0.1913215151 0.0844736265
C -1.6654251509 -0.8876989931 -0.8815991792
C -1.3533777875 -0.2499410452 1.5342728839
O 0.3945748786 1.1191878568 -1.533486003
H 2.890563655 -1.1932508301 1.2360752864
H 1.5431983005 -0.4356922791 2.0863707488
H 2.7025270879 0.5598366515 1.2046699429
H 1.9672076587 -0.4476104139 -0.9430620145
H 0.8305384682 -1.4802554634 -0.0882976283
H -1.7939030101 1.0857935075 -0.0740290921
H -1.3706870912 -0.6404468898 -1.8988013966
H -1.2465334985 -1.8583831533 -0.6295160933
H -2.7488166119 -0.9658085474 -0.8387882021
H -2.4029773299 -0.4518079156 1.7334637053
H -1.0160979469 0.5271633037 2.2164209622
H -0.7886856346 -1.1568234044 1.7324211086
H -0.211149481 1.8640119396 -1.6457227136
*
