! pbe def2-sv(p) def2/J RI DEFGRID1 loosescf d4 GCP(DFT/SV(P)) printgap
%output
    printlevel normal
end
* xyz 0 1
C -1.0267708813 -0.4603657513 -0.2994780263
C 0.1364526007 0.3752336025 0.2535830604
C 1.4679425095 -0.1154066081 -0.3536341753
O 1.7898756191 -1.4300267744 0.0295535809
O -0.0347934398 1.7581270326 0.0449802624
O -2.2779554634 -0.1235729978 0.250073144
H -0.7964983618 -1.5218850997 -0.1419081149
H -1.1249218059 -0.2845992056 -1.374308066
H 0.1786536059 0.2649920667 1.3445097096
H 2.2601859062 0.5887505579 -0.0721264381
H 1.3897421577 -0.1344983589 -1.4438888114
H 2.0233072543 -1.445597578 0.9684090911
H -0.259930616 1.9219568321 -0.8814265763
H -2.2538186248 -0.2460112575 1.208970512
*
