! pbe def2-sv(p) def2/J RI DEFGRID1 loosescf d4 GCP(DFT/SV(P)) printgap
%output
    printlevel normal
end
* xyz 0 1
C 0.5140999722 1.8272145031 -0.3684148941
C 1.8599590652 2.0811025925 -0.4877468915
C 2.8141964126 1.0933204255 -0.2206005566
C 2.3690342275 -0.1799983103 0.1800529087
C 0.9938239866 -0.4162136572 0.2991965036
C 0.0656478826 0.5668476318 0.0317117294
C -1.3843099406 0.2869753799 0.152747792
C -2.0606680278 0.4535460376 1.3562344565
C -3.4152700024 0.1895049013 1.4597160235
C -4.0920223458 -0.247636884 0.337233627
C -3.4669171629 -0.4295852311 -0.8817287785
C -2.1144651369 -0.1542285243 -0.9436749125
F -1.4807406535 -0.3270809794 -2.1326654455
F -5.4214599799 -0.510836832 0.4269263696
C 3.2510021117 -1.3157548578 0.4846684749
O 2.8506189406 -2.4118760564 0.8317654231
O 4.5596895955 -1.0736380254 0.3556808459
O 4.0974651873 1.4452921373 -0.3690720192
H -0.2029348749 2.603608706 -0.5847358937
H 2.2198173562 3.0496150763 -0.79513819
H 0.6814145023 -1.4032859947 0.6064827985
H -1.5115614129 0.7948054678 2.2184913631
H -3.943545143 0.3171245415 2.3896298727
H -4.0072997467 -0.7724029577 -1.7478731642
H 5.0976339507 -1.8610828288 0.5669542174
H 4.6978136746 0.7034967572 -0.1687657146
*
