! r2scan-3c def2/J RI DEFGRID2 scfconv6 printgap
%output
    printlevel normal
end
* xyz 0 1
C 1.790450733 -0.8269172204 1.2042507713
C 1.473955352 -0.2467429702 -0.1669828491
C 0.2866193052 0.7229609344 -0.2120826019
H 0.453479327 1.5024405227 0.5513645559
C -1.1211072831 0.1265558037 0.0174629747
C -1.3310028434 -1.1880037433 -0.7300681797
C -1.4715333975 -0.0185196226 1.4971006284
O 0.3604634909 1.3243574003 -1.5004804737
H 2.7653089673 -1.307514757 1.1784885373
H 1.0582694709 -1.5727115607 1.4986747379
H 1.8134293267 -0.0429858623 1.9573688287
H 2.3337708278 0.3281433197 -0.519987257
H 1.307840383 -1.0449392549 -0.8896788881
H -1.8212691866 0.8599495868 -0.4057672997
H -1.0168858709 -1.0838402433 -1.7662442634
H -0.7637773487 -1.9921858052 -0.2694960575
H -2.3836778483 -1.4604733522 -0.7132893326
H -1.3048908178 0.9174957489 2.0253301406
H -0.8776433795 -0.7917949521 1.972265712
H -2.520694636 -0.2866048607 1.5977945259
H -0.3248180702 2.0012297882 -1.5805387139
*
