! wb97x-v def2-tzvp def2/J RIJCOSX DEFGRID2 scfconv7 GCP(DFT/TZ) printgap
%output
    printlevel normal
end
* xyz 0 1
C -2.095570370307316 -0.6323248225227208 -0.5581286552280336
C -1.348716694804084 -0.2326186093131938 0.7126940432939078
C -0.5084873904084117 1.034996354074927 0.5574836776551461
C 0.5993555741162906 0.9344796562226332 -0.5099775484934611
C 1.5428399072177217 -0.1391314389935323 -0.24542783869089296
C 2.3083262744713458 -1.0387794040231928 0.006040266656992211
H -2.751132887645211 -1.4893323787516097 -0.3738918618291112
H -1.4062617143791636 -0.9144256173248915 -1.3614225270934814
H -2.717055076829684 0.19387397841502513 -0.9237490905002659
H -2.0700546096401617 -0.06720742520780387 1.5220161633504898
H -0.7035408431267569 -1.059749684333679 1.0365588786269408
H -1.1578517220858142 1.8730035785858896 0.27726190342893825
H -0.04668059857890164 1.2897915298413876 1.5177960036353257
H 1.145747447677332 1.8837810756104365 -0.5555579095962543
H 0.1565646686092993 0.7843524550762515 -1.501846322951413
H 2.99255685759303 -1.8300451510829823 0.21707701004627114
*
