! r2scan-3c def2/J RI DEFGRID2 scfconv6 printgap
%output
    printlevel normal
end
* xyz 0 1
C 1.7145859646 -1.2343822426 -0.9805062234
O 1.4796681046 -0.2545654487 0.0467191507
S 0.0625207873 0.3809100845 0.0571432063
O -0.3381812205 0.7853723767 -1.2602840631
O 0.0468228342 1.3877144324 1.0723362772
O -0.7917262342 -0.866819816 0.5055334738
C -2.2145112278 -0.661310774 0.5178965243
H 1.2842230563 -2.1841490211 -0.666515356
H 2.7944046127 -1.3047843449 -1.0869890024
H 1.2465751541 -0.887740349 -1.9010264823
H -2.5745104252 -0.9291688893 1.5093920252
H -2.6535396223 -1.3013289946 -0.2460993787
H -2.4240208908 0.3848499259 0.3031566599
*
