! r2scan-3c def2/J RI DEFGRID2 scfconv6 printgap
%output
    printlevel normal
end
* xyz 0 1
C -2.2472640643 0.9267859813 1.3270143535
C -2.3507355639 -0.0325372579 0.1441191169
C -2.426817381 0.7320176121 -1.1749212466
C -1.2060336323 -1.054083273 0.1431832999
C 0.1929147448 -0.5250769792 0.0254257276
C 1.2710102396 -1.4192547241 0.0749083232
N 2.5273388644 -1.0261800353 -0.0267121824
C 2.7415957936 0.2772204313 -0.1794889109
C 1.6867160513 1.1723974899 -0.2286383832
N 0.4262657917 0.7726444848 -0.1279418101
H -3.112576144 1.5843312258 1.3526073351
H -1.3521961099 1.5348357493 1.2378879048
H -2.2057451727 0.3767744412 2.264799224
H -3.2768927218 -0.6103470933 0.2554871099
H -1.5332627867 1.3333476951 -1.3099451106
H -2.5166392665 0.0438095748 -2.0126578014
H -3.2924795522 1.389562064 -1.1767867015
H -1.3578364338 -1.7541002913 -0.6839375044
H -1.254158173 -1.6407333016 1.065304891
H 1.1144487008 -2.4821328995 0.1989289737
H 3.7721242943 0.5891174183 -0.2604285308
H 1.838148342 2.2357069322 -0.3503320319
*
