! pbe def2-sv(p) def2/J RI DEFGRID1 loosescf d4 GCP(DFT/SV(P)) printgap
%output
    printlevel normal
end
* xyz 0 1
C -2.1962945077 1.0143908248 -0.644939202
C -2.0888798355 -0.2946338785 0.1278746967
C -0.8229093078 -0.3381156995 0.9886683024
C 0.4141617648 -0.3882110393 0.1306509107
O 0.5950779753 -1.1526595187 -0.7937232488
O 1.3133099925 0.5141103067 0.5108161972
C 2.5485832106 0.5630229816 -0.2077289303
H -1.3517251187 1.1250581234 -1.3225821707
H -3.109994287 1.0334828076 -1.2328009618
H -2.2044470839 1.8616798591 0.0365621021
H -2.0635310688 -1.1324089757 -0.5714614184
H -2.9590004016 -0.4114214032 0.7741655455
H -0.8297587306 -1.2433054677 1.5988163839
H -0.758439418 0.5320439216 1.6408650873
H 3.0268445887 -0.4170268726 -0.1949729746
H 3.156370863 1.3026516618 0.3034468231
H 2.3656326178 0.8544006335 -1.2426803777
*
