! r2scan-3c def2/J RI DEFGRID2 scfconv6 printgap
%output
    printlevel normal
end
* xyz 0 1
C -1.1041042351 -0.1539176323 0.7087013438
C 0.2147101088 0.5554194937 0.3585534923
C 1.1246504417 -0.368285209 -0.4671050496
O 1.6895410109 -1.398890319 0.3025593795
O -0.0345952793 1.708069035 -0.4209649691
O -1.8717206686 -0.4157152389 -0.4417814181
H -1.6830381846 0.4605894051 1.4138438984
H -0.8860253704 -1.11804091 1.1715495057
H 0.7317753678 0.8221164966 1.2912676414
H 1.8946589947 0.2430595811 -0.9525481008
H 0.5284584427 -0.8573384482 -1.2408774244
H 2.3291951951 -1.025872523 0.9256154491
H -0.4335026804 2.3936922147 0.1334047156
H -1.8439163111 0.3770732273 -1.0016591457
*
