! r2scan-3c def2/J RI DEFGRID2 scfconv6 printgap
%output
    printlevel normal
end
* xyz 0 1
C -3.0756733803 0.7862331181 0.0730138583
C -1.5708445394 0.7963207107 -0.1674039298
C -0.9471453457 -0.5468169378 0.2112889495
C 0.5422177487 -0.6124925184 0.002554258
O 1.151311831 -1.6336361697 -0.248623703
O 1.138217087 0.5646502828 0.1423226713
C 2.5590204204 0.6062079975 -0.0097528759
H -3.5084963896 1.7423016784 -0.2081679773
H -3.5515502807 0.006320295 -0.5164762497
H -3.2933776867 0.6047364292 1.1225057025
H -1.1074532898 1.5877672619 0.4219923317
H -1.3690481815 1.0025562232 -1.21994789
H -1.3965671422 -1.3642045205 -0.3550214081
H -1.1244861398 -0.7471037927 1.2715898515
H 3.033100544 -0.0314610829 0.7373328196
H 2.8372928804 1.6459080722 0.1298211171
H 2.838487126 0.2544200189 -1.0034884992
*
