! pbe def2-sv(p) def2/J RI DEFGRID1 loosescf d4 GCP(DFT/SV(P)) printgap
%output
    printlevel normal
end
* xyz 0 1
C -1.2417806163 0.2596567427 -0.215704865
C 0.1574054858 0.6611767437 0.2817517836
C 1.2398869249 -0.2335290625 -0.3491964961
O 1.1680690161 -1.5623538644 0.1056668855
O 0.3273076049 2.0164767826 -0.0662273075
O -1.6117688614 -1.0422021156 0.1740297653
H -1.2434419333 0.269966288 -1.308588924
H -1.9620015131 1.0072935334 0.1325461236
H 0.1998190273 0.5352105243 1.3760912124
H 2.2340744616 0.1253432268 -0.0672466598
H 1.1491237081 -0.1871535262 -1.4435971754
H 0.2626424811 -1.8841599712 -0.0471638193
H 1.1954774805 2.3244437853 0.2296265989
H -1.8412540669 -1.0461491036 1.1138995862
*
