! r2scan-3c def2/J RI DEFGRID2 scfconv6 printgap
%output
    printlevel normal
end
* xyz 0 1
C 2.444428416 0.6366217467 -0.5272054633
C 1.0812204705 -0.0480146014 -0.3987029659
H 0.7619395235 -0.383145189 -1.3978236106
C 0.0506987324 0.9424601254 0.1563891375
C -1.416310307 0.4821469988 0.1816616794
C -1.8839834219 -0.050451944 -1.1716907259
C -1.6745088334 -0.5480200215 1.2786282914
O 1.1626994318 -1.1720778919 0.4635119633
H 3.1807149605 -0.0521886069 -0.9361193586
H 2.3724649502 1.4953120185 -1.187946679
H 2.7834355895 0.9706309103 0.4507508307
H 0.3500243927 1.1981329378 1.1748512814
H 0.1153558454 1.8456547241 -0.4534437211
H -2.0107362252 1.3749390931 0.4140010185
H -2.9638557697 -0.17894956 -1.1671066895
H -1.4318728474 -1.0167736092 -1.3799960343
H -1.6231874286 0.6409427576 -1.9698343116
H -2.7199927621 -0.8482526142 1.27598705
H -1.0549538088 -1.4265816543 1.1251627965
H -1.4368577333 -0.1319605026 2.2549591001
H 1.8860231844 -1.7414830876 0.1698268808
*
