! wb97x-v def2-tzvp def2/J RIJCOSX DEFGRID2 scfconv7 GCP(DFT/TZ) printgap
%output
    printlevel normal
end
* xyz 0 1
C 2.5324207385792197 -0.049450131521868196 -0.12880553751516727
C 1.2642640365384927 0.7776566818401036 0.0069595154819134105
C -0.010311004044080373 0.010207630866687975 -0.23180152008292457
O -0.003571251262886034 -1.1245519426503658 -0.6991774961895215
C -1.2930838725241574 0.7121262063814452 0.1327748721619922
C -2.5547508149158245 -0.012656236176115531 -0.305343103486557
H 3.4116047833707817 0.5732085937013381 0.057079240473011675
H 2.5422925387189674 -0.8743724325714911 0.5898066814482601
H 2.6239453938503567 -0.47454458061492916 -1.1319724250074656
H 1.1929479677472283 1.2548389158926876 0.9921571685492216
H 1.2573745928528393 1.6086710340898236 -0.7132003021249637
H -1.2447517624943654 1.7297004537711116 -0.27525202059054027
H -1.2713093710386993 0.8429492257583803 1.2239755963612713
H -3.4406907570838734 0.5488659096710343 0.0035033733118422423
H -2.6125890873745226 -1.009538738716175 0.13993588192764359
H -2.5865191586916483 -0.126436465236106 -1.3930537191011214
*
