! r2scan-3c def2/J RI DEFGRID2 scfconv6 printgap
%output
    printlevel normal
end
%cpcm
    smd true
    smdsolvent "water"
end
* xyz 0 1
C 2.1316423396 -1.0142464809 -0.3711460613
C 1.746700144 0.3918112845 0.0746831062
C 0.3588939407 0.4742474878 0.7091744864
C -0.8003929388 0.1858597782 -0.25815462
H -0.4437871346 0.3118040133 -1.2938374976
C -1.3685435684 -1.2220752478 -0.0856283223
O -1.799915973 1.167046134 -0.0054761454
H 2.0544621416 -1.7109003051 0.4604485133
H 3.1573205381 -1.024339937 -0.732303177
H 1.4863318703 -1.3577871712 -1.1752810608
H 2.475040219 0.7406691583 0.8097189973
H 1.791579058 1.0693985325 -0.7807593997
H 0.301539656 -0.2073384266 1.5591549229
H 0.2048681029 1.4873248585 1.0870279718
H -2.141591127 -1.4186665632 -0.8259332432
H -0.583033594 -1.9615480332 -0.2001061225
H -1.8022634468 -1.3188969589 0.9073231451
H -2.5762423372 0.9789589331 -0.5499368694
*
