! r2scan-3c def2/J RI DEFGRID2 scfconv6 printgap
%output
    printlevel normal
end
%cpcm
    smd true
    smdsolvent "water"
end
* xyz 0 1
C -2.2042252962 0.8558948335 0.7517641832
C -1.8007168049 0.4074840981 -0.6476164
C -0.9099960265 -0.8412508539 -0.6102798459
C 0.40626206 -0.5504828283 0.0631272642
O 0.7825251037 -1.0573091603 1.1002040428
O 1.11420992 0.3380848118 -0.6226518385
C 2.3910976563 0.748170981 -0.1258116089
H -2.7624575327 0.0714168758 1.2572808832
H -1.3252400518 1.0828567296 1.3523469063
H -2.8262766176 1.7454968322 0.700893208
H -1.2627571425 1.2099596056 -1.1541975091
H -2.6952733709 0.1767255227 -1.2268764335
H -0.7006964297 -1.1665296892 -1.629683823
H -1.4011726528 -1.6452861207 -0.0625683314
H 2.3484424496 1.8195962915 0.0620039523
H 3.1293368276 0.5282291212 -0.8945042137
H 2.6222101678 0.2082375786 0.7931475392
*
