! r2scan-3c def2/J RI DEFGRID2 scfconv6 printgap
%output
    printlevel normal
end
* xyz 0 1
C -2.2269543623 0.9127648058 0.1896772524
C -0.8561028191 0.6641292488 -0.4540332707
C -0.0317473809 -0.4083150567 0.2675555243
H -0.0593049598 -0.2036842607 1.3445770704
C -0.5855686422 -1.8076085208 0.0142504858
C 1.4315136225 -0.3410363203 -0.1916404725
O 2.0594792251 0.8868417709 0.1092546202
H -3.0306558801 0.7481091034 -0.5224458194
H -2.3881795624 0.2466240342 1.0334561753
H -2.3078083293 1.9332316073 0.5543567019
H -0.2752576324 1.588442189 -0.4597193863
H -0.9788828287 0.3576892454 -1.4943974708
H -1.629904826 -1.8633829811 0.3080428436
H -0.0278653053 -2.5502145236 0.5801916862
H -0.5122865822 -2.05422734 -1.0425986386
H 1.4835741711 -0.4325476243 -1.2796746242
H 1.997804455 -1.1723096534 0.2503455343
H 2.0742782682 1.0038523207 1.0693616061
*
