! pbe def2-sv(p) def2/J RI DEFGRID1 loosescf d4 GCP(DFT/SV(P)) printgap
%output
    printlevel normal
end
* xyz 0 1
C -2.7694468453 0.2413111082 0.4539442655
C -1.6764387072 0.5484553326 -0.5728821341
C -0.4098571364 -0.1735509212 -0.190254753
O -0.2484953202 -1.3737458496 -0.2686831351
O 0.50467375 0.6629781028 0.2827222779
C 1.7686660641 0.1291541051 0.7123394493
C 2.7393970702 0.0133580825 -0.4528949162
H -2.9236153376 -0.832783135 0.5229508917
H -2.4861075155 0.6163182697 1.4341871023
H -3.700071018 0.7129632856 0.1536799523
H -1.4743676547 1.6174942788 -0.6108314969
H -1.9888853025 0.1910742013 -1.554246915
H 2.126853799 0.8386039507 1.4588338643
H 1.5963844728 -0.850384368 1.1686429699
H 2.3663887398 -0.7066448704 -1.1779369129
H 2.8566665533 0.9778388888 -0.9394019874
H 3.7034255123 -0.3234059944 -0.0858939087
*
