! r2scan-3c def2/J RI DEFGRID2 scfconv6 printgap
%output
    printlevel normal
end
* xyz 0 1
C -0.2087299944 -2.5570211678 0.0194571768
C 0.0432422831 -1.0784001902 -0.2009989055
O 1.2750126183 -0.7498412148 0.4183647632
C 1.7710964932 0.4866700413 0.2452892527
O 1.2040612299 1.3337800913 -0.4075557525
C 3.0810897974 0.6489707778 0.9428102572
O -0.9739536239 -0.2995325333 0.4164028113
C -1.7591985544 0.4764883297 -0.3496390654
O -1.7051698377 0.4814133063 -1.5569280458
C -2.7138639263 1.2636735974 0.4867011094
H -0.2867268218 -2.7468706209 1.0856244917
H 0.6200593039 -3.1223648997 -0.3927488745
H -1.1316317739 -2.8424621266 -0.4748287731
H 0.0815347841 -0.8053288334 -1.2672686366
H 3.8627443603 0.7351191778 0.1911406725
H 3.07078314 1.570812314 1.5176348465
H 3.2702259443 -0.208025429 1.5791764494
H -3.0809392829 2.1105467008 -0.0835108084
H -3.5503911579 0.6188949074 0.7486355965
H -2.2259426451 1.5853274299 1.4009014898
*
