! pbe def2-sv(p) def2/J RI DEFGRID1 loosescf d4 GCP(DFT/SV(P)) printgap
%output
    printlevel normal
end
* xyz 0 1
C -1.3698568513 -1.2059332806 0.8455030268
C -1.7730606283 -0.246530989 -0.273217272
C -2.4325563443 1.0001583774 0.3135851021
C -0.5668858922 0.157427182 -1.1591021467
O 0.6599286509 -0.4751008165 -0.7805950745
C 1.4603850011 0.1468467172 0.0778567318
O 1.2147880985 1.2319151454 0.5640232429
C 2.7054517799 -0.6468680819 0.3396831478
H -0.8855045144 -2.0907886094 0.4398717836
H -2.2533324801 -1.5140678371 1.3978796123
H -0.6861108106 -0.7195983263 1.5396138451
H -2.4997011283 -0.7593147096 -0.9099311804
H -2.7732600639 1.6625176639 -0.4781779885
H -1.7223437275 1.5403258483 0.9369300022
H -3.2879492249 0.7222475893 0.923651172
H -0.7212761581 -0.1490806288 -2.1939998114
H -0.4171627269 1.2405464828 -1.1149697119
H 3.4880436676 -0.2834511003 -0.3229717522
H 2.5262731423 -1.696754989 0.135156438
H 3.0270197408 -0.4935381985 1.365103052
*
