! r2scan-3c def2/J RI DEFGRID2 scfconv6 printgap
%output
    printlevel normal
end
%cpcm
    smd true
    smdsolvent "water"
end
* xyz 0 1
C -1.3502550352 -0.3582162062 -0.4622479533
C -0.0063562568 -0.0784560001 0.2150077797
C 1.1538204043 -0.7284722279 -0.5449023559
O 2.3739791651 -0.5734274691 0.1348454713
O 0.2538914007 1.310200617 0.2640368365
O -2.3540742454 0.2472771629 0.3256835024
H -1.50092406 -1.4411851627 -0.5300689337
H -1.3381860902 0.0718517867 -1.471645518
H -0.0377869546 -0.4812434897 1.2392591561
H 1.214480357 -0.2812359074 -1.5459467251
H 0.9885395017 -1.8027467621 -0.638141416
H 2.4920590376 0.3706321146 0.3185340868
H -0.5269901498 1.7472890712 0.633514073
H -3.2207796665 0.0804477059 -0.067537706
*
