! pbe def2-sv(p) def2/J RI DEFGRID1 loosescf d4 GCP(DFT/SV(P)) printgap
%output
    printlevel normal
end
* xyz 0 1
C 2.1303259447 -0.9120984253 0.1201105141
C 1.1590048001 -0.0558449317 0.929537731
C 0.1749665555 0.7874930557 0.087523282
H -0.0297878972 1.7142210458 0.6390094043
C -1.195886686 0.1210485606 -0.178145216
C -1.1014154969 -1.2892785403 -0.7573761318
C -2.0556332764 0.1128234931 1.0844372836
O 0.7561441487 1.2474342825 -1.1198646581
H 2.7780371655 -1.4595190116 0.8008799639
H 2.7575792221 -0.2811913369 -0.5056715099
H 1.6131888624 -1.6324088262 -0.5068562215
H 0.5846501347 -0.6876854991 1.6061832991
H 1.7498866663 0.6274203509 1.5426131372
H -1.6889803902 0.7624438081 -0.9194524035
H -2.0984876692 -1.6443176164 -1.0085535528
H -0.5044460115 -1.307294839 -1.6661285526
H -0.6715541864 -1.9772433419 -0.0342808582
H -3.0460907131 -0.2724678824 0.8558357907
H -2.1615522171 1.1179523822 1.4851756952
H -1.6149372966 -0.5181171661 1.8522248624
H 0.9192392797 0.4839702315 -1.6903727496
*
