! r2scan-3c def2/J RI DEFGRID2 scfconv6 printgap
%output
    printlevel normal
end
%cpcm
    smd true
    smdsolvent "water"
end
* xyz 0 1
C 1.5011908007 -1.4393017342 -0.0558793338
C 1.1963733732 -0.0304645006 0.4508178994
C 1.7373865986 1.0156233883 -0.5225856081
C -0.296246068 0.1687153012 0.7433526843
C -1.2236335806 0.0318569318 -0.4615794672
O -2.5513139033 0.2450944925 -0.0116250726
H 2.5765175646 -1.5921195113 -0.1079008927
H 1.0902218188 -1.5910311521 -1.0506768254
H 1.0799989429 -2.1863982044 0.6123502334
H 1.7150472322 0.1014902741 1.4076458021
H 1.3300112191 0.8654794542 -1.5191005633
H 2.820368943 0.9409891384 -0.5857891689
H 1.481107951 2.0182277855 -0.1891473951
H -0.4527178906 1.1625834813 1.1685009679
H -0.6188324941 -0.5581095763 1.4921267369
H -0.9661280771 0.7761014088 -1.2251909705
H -1.1353761171 -0.9712792701 -0.8966426036
H -3.1591590704 0.1652020141 -0.7583385296
*
