! r2scan-3c def2/J RI DEFGRID2 scfconv6 printgap
%output
    printlevel normal
end
* xyz 0 1
C 4.5038312646 0.2612390314 0.1217773877
N 3.0722320295 0.3739813441 0.2978539796
C 2.6451117643 1.417527339 1.2010940813
C 2.2501347076 -0.4628995201 -0.3356124459
O 2.6372563146 -1.3807471961 -1.0638080662
C 0.7720203123 -0.2553421695 -0.1605253159
C 0.1373660008 0.8293832632 -0.7655481192
C -1.2349221646 0.9547743454 -0.6969590282
C -1.9726529447 -0.0127110919 -0.0175131724
C -1.3502196439 -1.1048208212 0.5832075435
C 0.0221765137 -1.225023318 0.5016537454
N -3.3898208015 0.1123429972 0.0558747622
O -4.0199207598 -0.7446741368 0.6550607705
O -3.918212436 1.0707497689 -0.4850849001
H 4.9045861091 1.2032228472 -0.2522419423
H 4.7022793705 -0.5315754859 -0.5963706419
H 4.98140757 0.0184548395 1.0712952141
H 1.5856049298 1.3268025858 1.4206687441
H 2.8410957212 2.397171881 0.7618168146
H 3.2085727083 1.335244441 2.130910973
H 0.7201132142 1.5674657811 -1.2928564545
H -1.7494392867 1.7841042067 -1.1563191893
H -1.9509438042 -1.8390586603 1.0964544599
H 0.5221458323 -2.0704791551 0.9465785503
*
