! r2scan-3c def2/J RI DEFGRID2 scfconv6 printgap
%output
    printlevel normal
end
* xyz 0 1
C 2.8179494745 -0.1962732959 0.2006781574
C 1.4854534186 0.2915478121 -0.3543607186
C 0.3171015636 -0.5571312169 0.1428237378
C -1.0366514873 -0.009013976 -0.3268991788
H -1.0188237524 0.1130300748 -1.4162537947
C -2.1758366278 -0.9518910395 0.0623438445
O -1.2656952385 1.3013404779 0.1623152573
H 2.8213362806 -0.1460570964 1.287176737
H 3.6332763494 0.417351422 -0.1738739866
H 2.9983639612 -1.2272146282 -0.0955524267
H 1.3196215282 1.3303782012 -0.0612208294
H 1.5101474089 0.2599137546 -1.4459338694
H 0.4250609374 -1.5797822594 -0.2213169739
H 0.3284770773 -0.5857037505 1.235497379
H -3.12998703 -0.515901601 -0.2230714591
H -2.0603470264 -1.9056618467 -0.443313786
H -2.1746092402 -1.1229972135 1.1368960925
H -1.3400052127 1.2600198137 1.1264463516
*
