! r2scan-3c def2/J RI DEFGRID2 scfconv6 printgap
%output
    printlevel normal
end
* xyz 0 1
C -3.0708490353 0.7923484321 0.0564062183
C -1.5473582277 0.8319425258 0.0831618726
C -0.9612237104 -0.5678953909 -0.0768625184
C 0.5430520695 -0.6236818704 -0.0658199621
O 1.1830499371 -1.6515257371 -0.1776030583
O 1.1119198471 0.5654696782 0.0770605539
C 2.5403138436 0.6159387393 0.0975938847
H -3.4513902212 0.1721039456 0.864186284
H -3.4761057377 1.7937501003 0.1717068588
H -3.4260733078 0.3839647376 -0.8864947084
H -1.2064253489 1.2610039888 1.0262339467
H -1.1813808607 1.4711639575 -0.7212812121
H -1.2901777759 -1.0175178145 -1.0171063385
H -1.3113414768 -1.2257093915 0.7225277085
H 2.9211707 0.0522818281 0.9499330988
H 2.7939372015 1.6679410417 0.1799951399
H 2.9426969128 0.1844255842 -0.8195881379
*
