! pbe def2-sv(p) def2/J RI DEFGRID1 loosescf d4 GCP(DFT/SV(P)) printgap
%output
    printlevel normal
end
* xyz 0 1
C 2.1056417334 -1.102285451 -0.0336157312
C 1.221102624 0.0977769163 0.3094008459
C 1.9172593094 1.4121326099 -0.0478394774
O -7.49513e-05 0.0034454243 -0.4153674882
C -1.2214217984 -0.0968007502 0.3084567588
C -2.1100764859 1.0996913455 -0.036051046
C -1.9124209306 -1.4138901802 -0.0487502524
H 1.6065643171 -2.0282014785 0.2410732477
H 2.2971113804 -1.1167760017 -1.1030507375
H 3.0488776632 -1.0353541777 0.5000297043
H 1.0057027286 0.0879716831 1.3886827854
H 1.2827338306 2.2558379947 0.2121148718
H 2.1100070498 1.4411715325 -1.1166502298
H 2.8568584398 1.4951752411 0.489875571
H -1.0069409743 -0.0854094498 1.3879627148
H -3.0535467284 1.0298199642 0.4966737164
H -1.6144410276 2.0274374298 0.23843442
H -2.3005546816 1.1129442196 -1.1056097982
H -2.1007280766 -1.4454831213 -1.1183983842
H -2.8542166561 -1.4979995532 0.4850807624
H -1.2772438905 -2.2556014663 0.2156573427
*
