! r2scan-3c def2/J RI DEFGRID2 scfconv6 printgap
%output
    printlevel normal
end
* xyz 0 1
C -2.5952435514 -0.3497726701 -0.6941598273
C -1.7395228545 0.0593405877 0.5009521173
C -0.4898940193 0.8587254572 0.1020950644
C 0.8310228873 0.0635101232 0.0293136766
C 1.9349761566 0.9840980265 -0.5009000757
C 0.7215556027 -1.1726793799 -0.868788782
O 1.2513323199 -0.3186275742 1.3378953197
H -3.4674273648 -0.9067787563 -0.3587819623
H -2.0363442957 -0.9723243882 -1.3864795544
H -2.9396691046 0.5323725453 -1.2290585482
H -2.3522968259 0.6720499201 1.165253793
H -1.4579265693 -0.8328327271 1.0644056132
H -0.6600903871 1.328910985 -0.8668608611
H -0.3257131813 1.6564271361 0.8301980071
H 2.8859775423 0.4586340102 -0.4800927008
H 2.0179304665 1.8636121061 0.1319962083
H 1.7172265605 1.2923148994 -1.5184236255
H -0.0166906091 -1.8718756393 -0.4851550186
H 1.6839429829 -1.6784975841 -0.9034815176
H 0.4436204786 -0.8789164597 -1.8765125734
H 0.5779149041 -0.8870182309 1.7340840284
*
