! r2scan-3c def2/J RI DEFGRID2 scfconv6 printgap
%output
    printlevel normal
end
* xyz 0 1
C 2.0716881893 0.0428760277 -1.1522586076
C 1.6748635942 -0.5108824046 0.2123235519
C 0.2753525339 -0.1111000785 0.7160773586
H 0.1258446824 -0.6347716752 1.6690794573
C -0.8735210587 -0.5315971214 -0.2385637895
C -2.0933635128 -0.9631916576 0.5765135019
C -1.287201089 0.5806891144 -1.2032208644
O 0.2185313826 1.2545367402 1.0804052877
H 2.0194374403 1.129087387 -1.1696058144
H 1.4351340604 -0.3563328967 -1.9371243266
H 3.0974240071 -0.2434273444 -1.3725723833
H 1.720702244 -1.600845454 0.1852977183
H 2.3942429496 -0.1663061097 0.9593216203
H -0.522041016 -1.392107194 -0.8164102961
H -1.8573980348 -1.8225035872 1.1999176567
H -2.4150602351 -0.1475548165 1.2207209026
H -2.9163060406 -1.2309202873 -0.0819195906
H -2.0542560724 0.2077641559 -1.8778452692
H -0.4521628814 0.9309474287 -1.802670244
H -1.7035843944 1.4189073296 -0.6487775219
H 0.4259289445 1.7878761265 0.3012320497
*
