! r2scan-3c def2/J RI DEFGRID2 scfconv6 printgap
%output
    printlevel normal
end
%cpcm
    smd true
    smdsolvent "water"
end
* xyz 0 1
C 2.1193711272 -1.0292847686 -0.3976168442
C 1.7568997085 0.3712421633 0.0820692843
C 0.3731024969 0.456684454 0.7280268708
C -0.7942966008 0.2046396914 -0.2471347194
H -0.4357298716 0.3365070792 -1.280538739
C -1.3797790833 -1.1964996934 -0.0987016254
O -1.8675718955 1.111018043 -0.0223067851
H 1.4598064697 -1.3479893234 -1.2004886591
H 2.0429990296 -1.742771959 0.4196920101
H 3.1404706259 -1.044183512 -0.7713767849
H 2.4961021254 0.6936546332 0.818662317
H 1.80734533 1.064924505 -0.7605286945
H 0.3124198917 -0.2527552491 1.5547349763
H 0.2524590558 1.4559809101 1.1532025283
H -1.8049976429 -1.3028015911 0.8961719351
H -2.1734140731 -1.3415835175 -0.8271648947
H -0.6131194255 -1.9491945612 -0.2460743408
H -1.5695387268 2.0133271441 -0.1963685343
*
