! pbe def2-sv(p) def2/J RI DEFGRID1 loosescf d4 GCP(DFT/SV(P)) printgap
%output
    printlevel normal
end
* xyz 0 1
C -1.4431667687 0.3741154654 -0.2145301689
C 0.0077896815 0.3841867211 0.2905621655
C 0.8125095618 -0.7272417306 -0.4045822821
O 2.097516708 -0.906249172 0.1501349341
O 0.5246657635 1.6725769648 0.0198823251
O -2.1250675575 -0.8166964991 0.0834572755
H -1.4385325224 0.461820688 -1.3033378251
H -1.9588979622 1.2493810703 0.1975134955
H 0.0179654384 0.1929768958 1.3736445881
H 0.8711218709 -0.5083562358 -1.4758674101
H 0.2803615461 -1.6709783218 -0.2669849936
H 2.6909003195 -0.2224956251 -0.1892205657
H 1.3437592666 1.8007844149 0.518073584
H -2.2754013947 -0.8737322553 1.0377292911
*
