! wb97x-v def2-tzvp def2/J RIJCOSX DEFGRID2 scfconv7 GCP(DFT/TZ) printgap
%output
    printlevel normal
end
* xyz 0 1
C 2.259771484341284 -0.569900341701046 0.5829566457592822
C 1.527978354215719 -0.1243053849572141 -0.6810112020642747
C 0.5823835056942595 1.0571563860609663 -0.4581015828859318
C -0.52780515750067 0.8290376655020913 0.5602396358542097
S -1.6869874133254943 -0.5522424380274564 0.13429097648000596
H 1.572727103791615 -0.9917213866960759 1.3239709284179677
H 2.7814078407185816 0.27237250364156884 1.0522897808356289
H 3.003882358391573 -1.3392663047688491 0.3533942356267823
H 0.9642910828636506 -0.9680710178793764 -1.0960901027225831
H 2.2616067998098948 0.16640916355593763 -1.4420959992322686
H 0.13323140928738703 1.3555753935547932 -1.413571520622708
H 1.1649979720245445 1.9193088902003015 -0.10271586991645881
H -0.12340198621387165 0.5578601973531407 1.540266388543336
H -1.118849744183697 1.7389778817615738 0.6920064560827829
H -2.1009311490759774 -0.03828236880273497 -1.0390792519915766
*
