! r2scan-3c def2/J RI DEFGRID2 scfconv6 printgap
%output
    printlevel normal
end
* xyz 0 1
C 2.4070454424 -0.0050319332 -0.1533887314
O 1.1607041992 0.1169415029 0.4975735676
C 0.0597846959 -0.0744811072 -0.3661404758
C -1.2347489504 0.0793280132 0.4471161641
N -2.4525210118 -0.0956132708 -0.3201966549
H 2.5271209165 -1.0051497332 -0.5847101516
H 3.1647836489 0.161939893 0.6075940873
H 2.507870462 0.7417219328 -0.9489281018
H 0.0883827792 0.6682006306 -1.1804003133
H 0.1079019217 -1.078938992 -0.8180806348
H -1.2242865124 -0.6540558576 1.2565117405
H -1.2458808635 1.0750113794 0.8959745477
H -2.4644962972 -1.0183766315 -0.741403389
H -2.4861842696 0.584273803 -1.0722728038
*
