! r2scan-3c def2/J RI DEFGRID2 scfconv6 printgap
%output
    printlevel normal
end
%cpcm
    smd true
    smdsolvent "water"
end
* xyz 0 1
C 2.2271937258 -0.685792821 -0.8675556839
C 1.1910229814 -0.2716102357 0.1749842089
C 1.6843562345 0.9335499435 0.9799388256
O 0.0001319263 0.0002839799 -0.5564289243
C -1.1912479276 0.2717285086 0.1743469208
C -2.226894534 0.6855297891 -0.8688566551
C -1.6845801308 -0.9336594194 0.9790007323
H 1.8432206832 -1.5138771 -1.4564164326
H 2.4257917287 0.1482644714 -1.5347868372
H 3.1490715119 -0.987239278 -0.380381251
H 1.0168089739 -1.1159319616 0.8602262668
H 1.0123546422 1.1622314213 1.803403653
H 1.755645295 1.8035126648 0.3314692836
H 2.6657029167 0.7142865844 1.3894560284
H -1.0177673881 1.1160968464 0.859725953
H -3.150072508 0.9841680796 -0.3824280316
H -1.8439362652 1.5154071706 -1.4558329827
H -2.4227609203 -0.1478546127 -1.5377218224
H -1.7540319103 -1.8039156345 0.3307404423
H -2.6667465163 -0.7152588191 1.3869754533
H -1.0135910753 -1.1613680483 1.803566415
*
